SKUs = {
  "BRAKE_PAD_3_309",
  "BRAKE_PAD_3_328",
  "BRAKE_PAD_3_331",
  "BRAKE_PAD_3_356",
  "BRAKE_PAD_3_364",
  "BRAKE_PAD_3_367",
  "BRAKE_PAD_3_389",
  "BRAKE_PAD_3_397",
  "BRAKE_PAD_3_409",
  "BRAKE_PAD_3_423",
  "BRAKE_PAD_3_445",
  "BRAKE_PAD_3_456",
  "BRAKE_PAD_3_457",
  "BRAKE_PAD_3_459",
  "BRAKE_PAD_3_465",
  "BRAKE_PAD_3_486",
  "BRAKE_PAD_3_507",
  "BRAKE_PAD_3_512",
  "BRAKE_PAD_3_532",
  "BRAKE_PAD_3_542",
  "BRAKE_PAD_3_583",
  "BRAKE_PAD_3_584",
  "BRAKE_PAD_3_590",
  "BRAKE_PAD_3_600",
  "BRAKE_PAD_3_636",
  "BRAKE_PAD_3_638",
  "BRAKE_PAD_3_642",
  "BRAKE_PAD_3_645",
  "BRAKE_PAD_3_647",
  "BRAKE_PAD_3_652",
  "BRAKE_PAD_3_653",
  "BRAKE_PAD_3_674",
  "BRAKE_PAD_3_676",
  "BRAKE_PAD_3_678",
  "BRAKE_PAD_3_692",
  "BRAKE_PAD_3_693",
  "BRAKE_PAD_3_701",
  "BRAKE_PAD_3_703",
  "BRAKE_PAD_3_716",
  "BRAKE_PAD_3_733",
  "BRAKE_PAD_3_742",
  "BRAKE_PAD_3_751",
  "BRAKE_PAD_3_765",
  "BRAKE_PAD_3_774",
  "BRAKE_PAD_3_793",
  "BRAKE_PAD_3_795",
  "BRAKE_PAD_3_805",
  "BRAKE_PAD_3_824",
  "FAN_MOTOR_1_015",
  "FAN_MOTOR_1_021",
  "FAN_MOTOR_1_028",
  "FAN_MOTOR_1_037",
  "FAN_MOTOR_1_064",
  "FAN_MOTOR_1_081",
  "FAN_MOTOR_1_099",
  "FAN_MOTOR_1_142",
  "FAN_MOTOR_1_144",
  "FAN_MOTOR_1_153",
  "FAN_MOTOR_1_170",
  "FAN_MOTOR_1_176",
  "FAN_MOTOR_1_188",
  "FAN_MOTOR_1_202",
  "FAN_MOTOR_1_224",
  "FAN_MOTOR_1_238",
  "FAN_MOTOR_1_255",
  "FAN_MOTOR_1_259",
  "FAN_MOTOR_1_272",
  "FAN_MOTOR_1_291",
  "FAN_MOTOR_1_298",
  "FAN_MOTOR_1_314",
  "FAN_MOTOR_1_339",
  "FAN_MOTOR_1_356",
  "FAN_MOTOR_1_371",
  "FAN_MOTOR_1_390",
  "FAN_MOTOR_1_395",
  "FAN_MOTOR_1_408",
  "FAN_MOTOR_1_441",
  "FAN_MOTOR_1_444",
  "FAN_MOTOR_1_446",
  "FAN_MOTOR_1_462",
  "FAN_MOTOR_1_467",
  "FAN_MOTOR_1_468",
  "FAN_MOTOR_1_505",
  "FAN_MOTOR_1_521",
  "FAN_MOTOR_1_524",
  "FAN_MOTOR_1_537",
  "FAN_MOTOR_2_004",
  "FAN_MOTOR_2_024",
  "FAN_MOTOR_2_036",
  "FAN_MOTOR_2_040",
  "FAN_MOTOR_2_057",
  "FAN_MOTOR_2_062",
  "FAN_MOTOR_2_069",
  "FAN_MOTOR_2_074",
  "FAN_MOTOR_2_130",
  "FAN_MOTOR_2_151",
  "FAN_MOTOR_2_156"
};

Regions = {
  "CA",
  "TX",
  "WI"
};

unit_cost = #[
  "BRAKE_PAD_3_309": 1.9800,
  "BRAKE_PAD_3_328": 3.8000,
  "BRAKE_PAD_3_331": 1.4200,
  "BRAKE_PAD_3_356": 2.9800,
  "BRAKE_PAD_3_364": 2.7400,
  "BRAKE_PAD_3_367": 2.6800,
  "BRAKE_PAD_3_389": 1.6500,
  "BRAKE_PAD_3_397": 1.9900,
  "BRAKE_PAD_3_409": 2.7700,
  "BRAKE_PAD_3_423": 2.9800,
  "BRAKE_PAD_3_445": 2.4800,
  "BRAKE_PAD_3_456": 3.9400,
  "BRAKE_PAD_3_457": 2.3900,
  "BRAKE_PAD_3_459": 1.8500,
  "BRAKE_PAD_3_465": 1.8100,
  "BRAKE_PAD_3_486": 2.7400,
  "BRAKE_PAD_3_507": 1.9800,
  "BRAKE_PAD_3_512": 1.9800,
  "BRAKE_PAD_3_532": 2.9800,
  "BRAKE_PAD_3_542": 2.5100,
  "BRAKE_PAD_3_583": 1.4800,
  "BRAKE_PAD_3_584": 1.0000,
  "BRAKE_PAD_3_590": 2.6000,
  "BRAKE_PAD_3_600": 2.5000,
  "BRAKE_PAD_3_636": 3.5000,
  "BRAKE_PAD_3_638": 1.4900,
  "BRAKE_PAD_3_642": 3.3000,
  "BRAKE_PAD_3_645": 2.3900,
  "BRAKE_PAD_3_647": 1.1800,
  "BRAKE_PAD_3_652": 3.9800,
  "BRAKE_PAD_3_653": 3.9400,
  "BRAKE_PAD_3_674": 2.9800,
  "BRAKE_PAD_3_676": 7.2700,
  "BRAKE_PAD_3_678": 4.9200,
  "BRAKE_PAD_3_692": 0.8200,
  "BRAKE_PAD_3_693": 3.4800,
  "BRAKE_PAD_3_701": 2.0100,
  "BRAKE_PAD_3_703": 1.9800,
  "BRAKE_PAD_3_716": 1.3000,
  "BRAKE_PAD_3_733": 1.9600,
  "BRAKE_PAD_3_742": 1.2300,
  "BRAKE_PAD_3_751": 4.9800,
  "BRAKE_PAD_3_765": 2.8700,
  "BRAKE_PAD_3_774": 6.3300,
  "BRAKE_PAD_3_793": 2.9700,
  "BRAKE_PAD_3_795": 2.9800,
  "BRAKE_PAD_3_805": 1.0000,
  "BRAKE_PAD_3_824": 2.6400,
  "FAN_MOTOR_1_015": 5.2600,
  "FAN_MOTOR_1_021": 1.9400,
  "FAN_MOTOR_1_028": 2.8800,
  "FAN_MOTOR_1_037": 4.0400,
  "FAN_MOTOR_1_064": 5.7800,
  "FAN_MOTOR_1_081": 8.1700,
  "FAN_MOTOR_1_099": 2.3700,
  "FAN_MOTOR_1_142": 5.9100,
  "FAN_MOTOR_1_144": 2.9400,
  "FAN_MOTOR_1_153": 1.9700,
  "FAN_MOTOR_1_170": 1.9600,
  "FAN_MOTOR_1_176": 3.9400,
  "FAN_MOTOR_1_188": 3.9800,
  "FAN_MOTOR_1_202": 1.9800,
  "FAN_MOTOR_1_224": 8.2900,
  "FAN_MOTOR_1_238": 2.4800,
  "FAN_MOTOR_1_255": 9.3700,
  "FAN_MOTOR_1_259": 9.6400,
  "FAN_MOTOR_1_272": 9.9600,
  "FAN_MOTOR_1_291": 3.5600,
  "FAN_MOTOR_1_298": 3.7500,
  "FAN_MOTOR_1_314": 7.9800,
  "FAN_MOTOR_1_339": 0.9800,
  "FAN_MOTOR_1_356": 5.9600,
  "FAN_MOTOR_1_371": 4.9400,
  "FAN_MOTOR_1_390": 1.8400,
  "FAN_MOTOR_1_395": 4.8500,
  "FAN_MOTOR_1_408": 5.5700,
  "FAN_MOTOR_1_441": 2.7700,
  "FAN_MOTOR_1_444": 4.8800,
  "FAN_MOTOR_1_446": 3.9100,
  "FAN_MOTOR_1_462": 1.9200,
  "FAN_MOTOR_1_467": 11.8100,
  "FAN_MOTOR_1_468": 4.9800,
  "FAN_MOTOR_1_505": 2.5300,
  "FAN_MOTOR_1_521": 0.9600,
  "FAN_MOTOR_1_524": 3.9700,
  "FAN_MOTOR_1_537": 15.9700,
  "FAN_MOTOR_2_004": 5.6700,
  "FAN_MOTOR_2_024": 2.2200,
  "FAN_MOTOR_2_036": 3.9700,
  "FAN_MOTOR_2_040": 3.9700,
  "FAN_MOTOR_2_057": 4.9700,
  "FAN_MOTOR_2_062": 2.9200,
  "FAN_MOTOR_2_069": 10.0600,
  "FAN_MOTOR_2_074": 0.9700,
  "FAN_MOTOR_2_130": 7.9700,
  "FAN_MOTOR_2_151": 4.4400,
  "FAN_MOTOR_2_156": 7.0500,
]#;

original_holding_cost = #[
  "BRAKE_PAD_3_309": 309.3100,
  "BRAKE_PAD_3_328": 455.8400,
  "BRAKE_PAD_3_331": 350.8300,
  "BRAKE_PAD_3_356": 435.0000,
  "BRAKE_PAD_3_364": 271.5600,
  "BRAKE_PAD_3_367": 525.7800,
  "BRAKE_PAD_3_389": 877.3100,
  "BRAKE_PAD_3_397": 267.9300,
  "BRAKE_PAD_3_409": 458.5300,
  "BRAKE_PAD_3_423": 438.3200,
  "BRAKE_PAD_3_445": 292.1600,
  "BRAKE_PAD_3_456": 368.8700,
  "BRAKE_PAD_3_457": 332.7800,
  "BRAKE_PAD_3_459": 797.0700,
  "BRAKE_PAD_3_465": 207.6300,
  "BRAKE_PAD_3_486": 298.2900,
  "BRAKE_PAD_3_507": 363.8300,
  "BRAKE_PAD_3_512": 226.5000,
  "BRAKE_PAD_3_532": 653.5100,
  "BRAKE_PAD_3_542": 277.7400,
  "BRAKE_PAD_3_583": 207.3200,
  "BRAKE_PAD_3_584": 282.7500,
  "BRAKE_PAD_3_590": 403.1300,
  "BRAKE_PAD_3_600": 475.4300,
  "BRAKE_PAD_3_636": 1151.3200,
  "BRAKE_PAD_3_638": 333.6300,
  "BRAKE_PAD_3_642": 369.3600,
  "BRAKE_PAD_3_645": 299.3200,
  "BRAKE_PAD_3_647": 230.6600,
  "BRAKE_PAD_3_652": 823.3400,
  "BRAKE_PAD_3_653": 584.0700,
  "BRAKE_PAD_3_674": 601.7700,
  "BRAKE_PAD_3_676": 588.2900,
  "BRAKE_PAD_3_678": 885.0000,
  "BRAKE_PAD_3_692": 417.5800,
  "BRAKE_PAD_3_693": 262.2800,
  "BRAKE_PAD_3_701": 325.6600,
  "BRAKE_PAD_3_703": 343.5500,
  "BRAKE_PAD_3_716": 290.1200,
  "BRAKE_PAD_3_733": 264.1800,
  "BRAKE_PAD_3_742": 298.1700,
  "BRAKE_PAD_3_751": 458.4800,
  "BRAKE_PAD_3_765": 501.3100,
  "BRAKE_PAD_3_774": 575.6600,
  "BRAKE_PAD_3_793": 320.5700,
  "BRAKE_PAD_3_795": 612.6900,
  "BRAKE_PAD_3_805": 432.8300,
  "BRAKE_PAD_3_824": 287.0600,
  "FAN_MOTOR_1_015": 452.0900,
  "FAN_MOTOR_1_021": 373.2600,
  "FAN_MOTOR_1_028": 477.2700,
  "FAN_MOTOR_1_037": 354.5000,
  "FAN_MOTOR_1_064": 279.8200,
  "FAN_MOTOR_1_081": 921.6000,
  "FAN_MOTOR_1_099": 274.8100,
  "FAN_MOTOR_1_142": 503.9200,
  "FAN_MOTOR_1_144": 210.5500,
  "FAN_MOTOR_1_153": 431.4500,
  "FAN_MOTOR_1_170": 409.9200,
  "FAN_MOTOR_1_176": 444.5300,
  "FAN_MOTOR_1_188": 505.3800,
  "FAN_MOTOR_1_202": 497.3100,
  "FAN_MOTOR_1_224": 573.2800,
  "FAN_MOTOR_1_238": 337.6900,
  "FAN_MOTOR_1_255": 687.3600,
  "FAN_MOTOR_1_259": 936.6200,
  "FAN_MOTOR_1_272": 770.0600,
  "FAN_MOTOR_1_291": 503.6700,
  "FAN_MOTOR_1_298": 450.6700,
  "FAN_MOTOR_1_314": 328.2400,
  "FAN_MOTOR_1_339": 565.3900,
  "FAN_MOTOR_1_356": 812.0900,
  "FAN_MOTOR_1_371": 531.2500,
  "FAN_MOTOR_1_390": 242.2800,
  "FAN_MOTOR_1_395": 420.6900,
  "FAN_MOTOR_1_408": 540.6900,
  "FAN_MOTOR_1_441": 689.8600,
  "FAN_MOTOR_1_444": 306.3000,
  "FAN_MOTOR_1_446": 327.4300,
  "FAN_MOTOR_1_462": 474.3700,
  "FAN_MOTOR_1_467": 900.7400,
  "FAN_MOTOR_1_468": 582.2200,
  "FAN_MOTOR_1_505": 525.0800,
  "FAN_MOTOR_1_521": 819.0700,
  "FAN_MOTOR_1_524": 399.9500,
  "FAN_MOTOR_1_537": 1016.9700,
  "FAN_MOTOR_2_004": 264.2400,
  "FAN_MOTOR_2_024": 182.9400,
  "FAN_MOTOR_2_036": 445.9500,
  "FAN_MOTOR_2_040": 427.7500,
  "FAN_MOTOR_2_057": 412.4600,
  "FAN_MOTOR_2_062": 271.1900,
  "FAN_MOTOR_2_069": 357.3500,
  "FAN_MOTOR_2_074": 203.1700,
  "FAN_MOTOR_2_130": 247.5500,
  "FAN_MOTOR_2_151": 175.6100,
  "FAN_MOTOR_2_156": 334.3500,
]#;

original_ordering_cost = #[
  "BRAKE_PAD_3_309": 77.1500,
  "BRAKE_PAD_3_328": 160.5700,
  "BRAKE_PAD_3_331": 167.6400,
  "BRAKE_PAD_3_356": 180.7600,
  "BRAKE_PAD_3_364": 76.7900,
  "BRAKE_PAD_3_367": 245.3700,
  "BRAKE_PAD_3_389": 601.1900,
  "BRAKE_PAD_3_397": 83.3800,
  "BRAKE_PAD_3_409": 133.1000,
  "BRAKE_PAD_3_423": 153.9700,
  "BRAKE_PAD_3_445": 72.7500,
  "BRAKE_PAD_3_456": 130.9300,
  "BRAKE_PAD_3_457": 117.0700,
  "BRAKE_PAD_3_459": 293.1300,
  "BRAKE_PAD_3_465": 53.1000,
  "BRAKE_PAD_3_486": 79.9500,
  "BRAKE_PAD_3_507": 113.7500,
  "BRAKE_PAD_3_512": 77.6700,
  "BRAKE_PAD_3_532": 362.4600,
  "BRAKE_PAD_3_542": 88.1400,
  "BRAKE_PAD_3_583": 69.7300,
  "BRAKE_PAD_3_584": 116.1200,
  "BRAKE_PAD_3_590": 149.2100,
  "BRAKE_PAD_3_600": 208.2400,
  "BRAKE_PAD_3_636": 624.1300,
  "BRAKE_PAD_3_638": 145.0300,
  "BRAKE_PAD_3_642": 121.3400,
  "BRAKE_PAD_3_645": 89.8200,
  "BRAKE_PAD_3_647": 97.9500,
  "BRAKE_PAD_3_652": 425.4000,
  "BRAKE_PAD_3_653": 266.8100,
  "BRAKE_PAD_3_674": 285.2400,
  "BRAKE_PAD_3_676": 176.4500,
  "BRAKE_PAD_3_678": 388.2600,
  "BRAKE_PAD_3_692": 189.2400,
  "BRAKE_PAD_3_693": 65.4200,
  "BRAKE_PAD_3_701": 106.6300,
  "BRAKE_PAD_3_703": 144.0100,
  "BRAKE_PAD_3_716": 128.8400,
  "BRAKE_PAD_3_733": 98.1000,
  "BRAKE_PAD_3_742": 138.6300,
  "BRAKE_PAD_3_751": 142.3500,
  "BRAKE_PAD_3_765": 251.0700,
  "BRAKE_PAD_3_774": 175.6400,
  "BRAKE_PAD_3_793": 106.8300,
  "BRAKE_PAD_3_795": 318.3600,
  "BRAKE_PAD_3_805": 209.3300,
  "BRAKE_PAD_3_824": 72.0300,
  "FAN_MOTOR_1_015": 111.9200,
  "FAN_MOTOR_1_021": 160.4500,
  "FAN_MOTOR_1_028": 215.5700,
  "FAN_MOTOR_1_037": 105.2600,
  "FAN_MOTOR_1_064": 69.6200,
  "FAN_MOTOR_1_081": 343.2100,
  "FAN_MOTOR_1_099": 95.5700,
  "FAN_MOTOR_1_142": 188.8200,
  "FAN_MOTOR_1_144": 52.4600,
  "FAN_MOTOR_1_153": 215.0500,
  "FAN_MOTOR_1_170": 195.6300,
  "FAN_MOTOR_1_176": 167.5000,
  "FAN_MOTOR_1_188": 226.4700,
  "FAN_MOTOR_1_202": 282.4800,
  "FAN_MOTOR_1_224": 159.9900,
  "FAN_MOTOR_1_238": 145.0300,
  "FAN_MOTOR_1_255": 222.0100,
  "FAN_MOTOR_1_259": 485.0400,
  "FAN_MOTOR_1_272": 332.5400,
  "FAN_MOTOR_1_291": 232.0500,
  "FAN_MOTOR_1_298": 173.3600,
  "FAN_MOTOR_1_314": 81.4700,
  "FAN_MOTOR_1_339": 299.5100,
  "FAN_MOTOR_1_356": 393.0000,
  "FAN_MOTOR_1_371": 235.3300,
  "FAN_MOTOR_1_390": 107.7300,
  "FAN_MOTOR_1_395": 124.4300,
  "FAN_MOTOR_1_408": 193.4600,
  "FAN_MOTOR_1_441": 412.0400,
  "FAN_MOTOR_1_444": 76.1800,
  "FAN_MOTOR_1_446": 81.3700,
  "FAN_MOTOR_1_462": 170.7000,
  "FAN_MOTOR_1_467": 390.3500,
  "FAN_MOTOR_1_468": 275.6400,
  "FAN_MOTOR_1_505": 260.6300,
  "FAN_MOTOR_1_521": 494.2200,
  "FAN_MOTOR_1_524": 156.2500,
  "FAN_MOTOR_1_537": 467.4300,
  "FAN_MOTOR_2_004": 65.7300,
  "FAN_MOTOR_2_024": 45.5500,
  "FAN_MOTOR_2_036": 176.0900,
  "FAN_MOTOR_2_040": 156.6300,
  "FAN_MOTOR_2_057": 102.7100,
  "FAN_MOTOR_2_062": 78.5200,
  "FAN_MOTOR_2_069": 88.7500,
  "FAN_MOTOR_2_074": 83.7300,
  "FAN_MOTOR_2_130": 61.6300,
  "FAN_MOTOR_2_151": 43.7300,
  "FAN_MOTOR_2_156": 82.9200,
]#;

original_stockout_cost = #[
  "BRAKE_PAD_3_309": 201.3500,
  "BRAKE_PAD_3_328": 179.6700,
  "BRAKE_PAD_3_331": 116.9500,
  "BRAKE_PAD_3_356": 150.6600,
  "BRAKE_PAD_3_364": 406.3700,
  "BRAKE_PAD_3_367": 247.9900,
  "BRAKE_PAD_3_389": 428.8100,
  "BRAKE_PAD_3_397": 136.6600,
  "BRAKE_PAD_3_409": 495.7200,
  "BRAKE_PAD_3_423": 202.9300,
  "BRAKE_PAD_3_445": 475.5700,
  "BRAKE_PAD_3_456": 333.3900,
  "BRAKE_PAD_3_457": 314.3600,
  "BRAKE_PAD_3_459": 670.7300,
  "BRAKE_PAD_3_465": 346.7300,
  "BRAKE_PAD_3_486": 210.0400,
  "BRAKE_PAD_3_507": 256.0200,
  "BRAKE_PAD_3_512": 242.3000,
  "BRAKE_PAD_3_532": 288.5700,
  "BRAKE_PAD_3_542": 391.0900,
  "BRAKE_PAD_3_583": 274.4400,
  "BRAKE_PAD_3_584": 170.7700,
  "BRAKE_PAD_3_590": 127.5400,
  "BRAKE_PAD_3_600": 177.6800,
  "BRAKE_PAD_3_636": 1124.3500,
  "BRAKE_PAD_3_638": 312.4300,
  "BRAKE_PAD_3_642": 302.1600,
  "BRAKE_PAD_3_645": 260.9700,
  "BRAKE_PAD_3_647": 369.1400,
  "BRAKE_PAD_3_652": 566.1900,
  "BRAKE_PAD_3_653": 243.8700,
  "BRAKE_PAD_3_674": 274.9700,
  "BRAKE_PAD_3_676": 313.6900,
  "BRAKE_PAD_3_678": 765.1600,
  "BRAKE_PAD_3_692": 139.0500,
  "BRAKE_PAD_3_693": 309.5900,
  "BRAKE_PAD_3_701": 198.1400,
  "BRAKE_PAD_3_703": 237.0900,
  "BRAKE_PAD_3_716": 249.3400,
  "BRAKE_PAD_3_733": 302.2100,
  "BRAKE_PAD_3_742": 260.0600,
  "BRAKE_PAD_3_751": 362.3600,
  "BRAKE_PAD_3_765": 233.9500,
  "BRAKE_PAD_3_774": 274.4600,
  "BRAKE_PAD_3_793": 208.4000,
  "BRAKE_PAD_3_795": 337.4500,
  "BRAKE_PAD_3_805": 139.1100,
  "BRAKE_PAD_3_824": 146.4500,
  "FAN_MOTOR_1_015": 112.6900,
  "FAN_MOTOR_1_021": 43.3800,
  "FAN_MOTOR_1_028": 77.9900,
  "FAN_MOTOR_1_037": 79.1700,
  "FAN_MOTOR_1_064": 140.7000,
  "FAN_MOTOR_1_081": 281.3700,
  "FAN_MOTOR_1_099": 82.2600,
  "FAN_MOTOR_1_142": 71.8100,
  "FAN_MOTOR_1_144": 119.5500,
  "FAN_MOTOR_1_153": 54.0100,
  "FAN_MOTOR_1_170": 42.5000,
  "FAN_MOTOR_1_176": 69.7600,
  "FAN_MOTOR_1_188": 79.4400,
  "FAN_MOTOR_1_202": 70.9300,
  "FAN_MOTOR_1_224": 97.3900,
  "FAN_MOTOR_1_238": 102.3500,
  "FAN_MOTOR_1_255": 108.3500,
  "FAN_MOTOR_1_259": 282.0200,
  "FAN_MOTOR_1_272": 153.8500,
  "FAN_MOTOR_1_291": 77.9900,
  "FAN_MOTOR_1_298": 52.3100,
  "FAN_MOTOR_1_314": 145.8900,
  "FAN_MOTOR_1_339": 95.4000,
  "FAN_MOTOR_1_356": 178.2500,
  "FAN_MOTOR_1_371": 254.6500,
  "FAN_MOTOR_1_390": 127.2100,
  "FAN_MOTOR_1_395": 130.1800,
  "FAN_MOTOR_1_408": 97.2100,
  "FAN_MOTOR_1_441": 342.1500,
  "FAN_MOTOR_1_444": 193.2300,
  "FAN_MOTOR_1_446": 71.4900,
  "FAN_MOTOR_1_462": 83.9500,
  "FAN_MOTOR_1_467": 233.4500,
  "FAN_MOTOR_1_468": 110.1300,
  "FAN_MOTOR_1_505": 81.8500,
  "FAN_MOTOR_1_521": 186.7900,
  "FAN_MOTOR_1_524": 168.3000,
  "FAN_MOTOR_1_537": 335.1500,
  "FAN_MOTOR_2_004": 112.0700,
  "FAN_MOTOR_2_024": 46.9600,
  "FAN_MOTOR_2_036": 67.7300,
  "FAN_MOTOR_2_040": 148.5900,
  "FAN_MOTOR_2_057": 271.9600,
  "FAN_MOTOR_2_062": 66.3000,
  "FAN_MOTOR_2_069": 83.4100,
  "FAN_MOTOR_2_074": 34.6000,
  "FAN_MOTOR_2_130": 111.1700,
  "FAN_MOTOR_2_151": 42.6500,
  "FAN_MOTOR_2_156": 55.7000,
]#;

original_avg_inventory = #[
  "BRAKE_PAD_3_309": 624.8700,
  "BRAKE_PAD_3_328": 545.3600,
  "BRAKE_PAD_3_331": 1370.8800,
  "BRAKE_PAD_3_356": 810.8200,
  "BRAKE_PAD_3_364": 450.2800,
  "BRAKE_PAD_3_367": 1089.9200,
  "BRAKE_PAD_3_389": 2947.7500,
  "BRAKE_PAD_3_397": 611.6700,
  "BRAKE_PAD_3_409": 752.2100,
  "BRAKE_PAD_3_423": 817.1400,
  "BRAKE_PAD_3_445": 471.2200,
  "BRAKE_PAD_3_456": 425.4000,
  "BRAKE_PAD_3_457": 772.6900,
  "BRAKE_PAD_3_459": 2390.4500,
  "BRAKE_PAD_3_465": 637.2100,
  "BRAKE_PAD_3_486": 494.7000,
  "BRAKE_PAD_3_507": 835.2400,
  "BRAKE_PAD_3_512": 519.9700,
  "BRAKE_PAD_3_532": 1220.1300,
  "BRAKE_PAD_3_542": 503.8500,
  "BRAKE_PAD_3_583": 776.2300,
  "BRAKE_PAD_3_584": 1570.8500,
  "BRAKE_PAD_3_590": 860.6300,
  "BRAKE_PAD_3_600": 1055.3600,
  "BRAKE_PAD_3_636": 1826.3400,
  "BRAKE_PAD_3_638": 1240.7200,
  "BRAKE_PAD_3_642": 508.2100,
  "BRAKE_PAD_3_645": 696.8700,
  "BRAKE_PAD_3_647": 1082.1200,
  "BRAKE_PAD_3_652": 1149.2700,
  "BRAKE_PAD_3_653": 823.5000,
  "BRAKE_PAD_3_674": 1121.8800,
  "BRAKE_PAD_3_676": 449.8300,
  "BRAKE_PAD_3_678": 999.1300,
  "BRAKE_PAD_3_692": 2834.7900,
  "BRAKE_PAD_3_693": 301.4700,
  "BRAKE_PAD_3_701": 736.7500,
  "BRAKE_PAD_3_703": 963.9400,
  "BRAKE_PAD_3_716": 1235.5500,
  "BRAKE_PAD_3_733": 613.8000,
  "BRAKE_PAD_3_742": 1352.2000,
  "BRAKE_PAD_3_751": 418.4700,
  "BRAKE_PAD_3_765": 971.0800,
  "BRAKE_PAD_3_774": 413.2400,
  "BRAKE_PAD_3_793": 489.8500,
  "BRAKE_PAD_3_795": 1143.9200,
  "BRAKE_PAD_3_805": 2404.6000,
  "BRAKE_PAD_3_824": 494.9100,
  "FAN_MOTOR_1_015": 343.5900,
  "FAN_MOTOR_1_021": 1067.0000,
  "FAN_MOTOR_1_028": 920.9500,
  "FAN_MOTOR_1_037": 398.8500,
  "FAN_MOTOR_1_064": 193.6400,
  "FAN_MOTOR_1_081": 626.3800,
  "FAN_MOTOR_1_099": 644.1900,
  "FAN_MOTOR_1_142": 473.9900,
  "FAN_MOTOR_1_144": 398.5300,
  "FAN_MOTOR_1_153": 1216.7200,
  "FAN_MOTOR_1_170": 1161.0100,
  "FAN_MOTOR_1_176": 627.3800,
  "FAN_MOTOR_1_188": 705.4500,
  "FAN_MOTOR_1_202": 1395.3700,
  "FAN_MOTOR_1_224": 314.4300,
  "FAN_MOTOR_1_238": 756.4800,
  "FAN_MOTOR_1_255": 333.5200,
  "FAN_MOTOR_1_259": 539.7800,
  "FAN_MOTOR_1_272": 429.5900,
  "FAN_MOTOR_1_291": 785.4300,
  "FAN_MOTOR_1_298": 668.0800,
  "FAN_MOTOR_1_314": 164.5300,
  "FAN_MOTOR_1_339": 3209.6900,
  "FAN_MOTOR_1_356": 756.9800,
  "FAN_MOTOR_1_371": 597.4500,
  "FAN_MOTOR_1_390": 731.7300,
  "FAN_MOTOR_1_395": 394.2800,
  "FAN_MOTOR_1_408": 539.2100,
  "FAN_MOTOR_1_441": 1383.5900,
  "FAN_MOTOR_1_444": 285.3000,
  "FAN_MOTOR_1_446": 334.9200,
  "FAN_MOTOR_1_462": 1369.5000,
  "FAN_MOTOR_1_467": 423.8700,
  "FAN_MOTOR_1_468": 649.5300,
  "FAN_MOTOR_1_505": 1151.8500,
  "FAN_MOTOR_1_521": 4740.2600,
  "FAN_MOTOR_1_524": 559.6800,
  "FAN_MOTOR_1_537": 353.7700,
  "FAN_MOTOR_2_004": 186.4100,
  "FAN_MOTOR_2_024": 329.6200,
  "FAN_MOTOR_2_036": 624.0600,
  "FAN_MOTOR_2_040": 489.7500,
  "FAN_MOTOR_2_057": 331.9600,
  "FAN_MOTOR_2_062": 421.5300,
  "FAN_MOTOR_2_069": 142.1500,
  "FAN_MOTOR_2_074": 1163.9400,
  "FAN_MOTOR_2_130": 124.2400,
  "FAN_MOTOR_2_151": 158.2100,
  "FAN_MOTOR_2_156": 189.5900,
]#;

original_service_level = #[
  "BRAKE_PAD_3_309": 0.9500,
  "BRAKE_PAD_3_328": 0.9800,
  "BRAKE_PAD_3_331": 0.9800,
  "BRAKE_PAD_3_356": 0.9800,
  "BRAKE_PAD_3_364": 0.9000,
  "BRAKE_PAD_3_367": 0.9800,
  "BRAKE_PAD_3_389": 0.9800,
  "BRAKE_PAD_3_397": 0.9500,
  "BRAKE_PAD_3_409": 0.9500,
  "BRAKE_PAD_3_423": 0.9800,
  "BRAKE_PAD_3_445": 0.9000,
  "BRAKE_PAD_3_456": 0.9500,
  "BRAKE_PAD_3_457": 0.9500,
  "BRAKE_PAD_3_459": 0.9800,
  "BRAKE_PAD_3_465": 0.9000,
  "BRAKE_PAD_3_486": 0.9500,
  "BRAKE_PAD_3_507": 0.9500,
  "BRAKE_PAD_3_512": 0.9000,
  "BRAKE_PAD_3_532": 0.9800,
  "BRAKE_PAD_3_542": 0.9000,
  "BRAKE_PAD_3_583": 0.9000,
  "BRAKE_PAD_3_584": 0.9500,
  "BRAKE_PAD_3_590": 0.9800,
  "BRAKE_PAD_3_600": 0.9800,
  "BRAKE_PAD_3_636": 0.9800,
  "BRAKE_PAD_3_638": 0.9500,
  "BRAKE_PAD_3_642": 0.9500,
  "BRAKE_PAD_3_645": 0.9500,
  "BRAKE_PAD_3_647": 0.9000,
  "BRAKE_PAD_3_652": 0.9800,
  "BRAKE_PAD_3_653": 0.9800,
  "BRAKE_PAD_3_674": 0.9800,
  "BRAKE_PAD_3_676": 0.9800,
  "BRAKE_PAD_3_678": 0.9800,
  "BRAKE_PAD_3_692": 0.9800,
  "BRAKE_PAD_3_693": 0.9000,
  "BRAKE_PAD_3_701": 0.9500,
  "BRAKE_PAD_3_703": 0.9500,
  "BRAKE_PAD_3_716": 0.9500,
  "BRAKE_PAD_3_733": 0.9000,
  "BRAKE_PAD_3_742": 0.9500,
  "BRAKE_PAD_3_751": 0.9500,
  "BRAKE_PAD_3_765": 0.9800,
  "BRAKE_PAD_3_774": 0.9800,
  "BRAKE_PAD_3_793": 0.9500,
  "BRAKE_PAD_3_795": 0.9800,
  "BRAKE_PAD_3_805": 0.9800,
  "BRAKE_PAD_3_824": 0.9500,
  "FAN_MOTOR_1_015": 0.9500,
  "FAN_MOTOR_1_021": 0.9800,
  "FAN_MOTOR_1_028": 0.9800,
  "FAN_MOTOR_1_037": 0.9500,
  "FAN_MOTOR_1_064": 0.9000,
  "FAN_MOTOR_1_081": 0.9800,
  "FAN_MOTOR_1_099": 0.9500,
  "FAN_MOTOR_1_142": 0.9800,
  "FAN_MOTOR_1_144": 0.9000,
  "FAN_MOTOR_1_153": 0.9800,
  "FAN_MOTOR_1_170": 0.9800,
  "FAN_MOTOR_1_176": 0.9800,
  "FAN_MOTOR_1_188": 0.9800,
  "FAN_MOTOR_1_202": 0.9800,
  "FAN_MOTOR_1_224": 0.9800,
  "FAN_MOTOR_1_238": 0.9500,
  "FAN_MOTOR_1_255": 0.9800,
  "FAN_MOTOR_1_259": 0.9800,
  "FAN_MOTOR_1_272": 0.9800,
  "FAN_MOTOR_1_291": 0.9800,
  "FAN_MOTOR_1_298": 0.9800,
  "FAN_MOTOR_1_314": 0.9000,
  "FAN_MOTOR_1_339": 0.9800,
  "FAN_MOTOR_1_356": 0.9800,
  "FAN_MOTOR_1_371": 0.9500,
  "FAN_MOTOR_1_390": 0.9000,
  "FAN_MOTOR_1_395": 0.9500,
  "FAN_MOTOR_1_408": 0.9800,
  "FAN_MOTOR_1_441": 0.9500,
  "FAN_MOTOR_1_444": 0.9000,
  "FAN_MOTOR_1_446": 0.9500,
  "FAN_MOTOR_1_462": 0.9800,
  "FAN_MOTOR_1_467": 0.9800,
  "FAN_MOTOR_1_468": 0.9800,
  "FAN_MOTOR_1_505": 0.9800,
  "FAN_MOTOR_1_521": 0.9800,
  "FAN_MOTOR_1_524": 0.9500,
  "FAN_MOTOR_1_537": 0.9800,
  "FAN_MOTOR_2_004": 0.9000,
  "FAN_MOTOR_2_024": 0.9000,
  "FAN_MOTOR_2_036": 0.9800,
  "FAN_MOTOR_2_040": 0.9500,
  "FAN_MOTOR_2_057": 0.9000,
  "FAN_MOTOR_2_062": 0.9500,
  "FAN_MOTOR_2_069": 0.9500,
  "FAN_MOTOR_2_074": 0.9500,
  "FAN_MOTOR_2_130": 0.9000,
  "FAN_MOTOR_2_151": 0.9000,
  "FAN_MOTOR_2_156": 0.9500,
]#;

ABC_Class = #[
  "BRAKE_PAD_3_309": "B",
  "BRAKE_PAD_3_328": "A",
  "BRAKE_PAD_3_331": "A",
  "BRAKE_PAD_3_356": "A",
  "BRAKE_PAD_3_364": "C",
  "BRAKE_PAD_3_367": "A",
  "BRAKE_PAD_3_389": "A",
  "BRAKE_PAD_3_397": "B",
  "BRAKE_PAD_3_409": "B",
  "BRAKE_PAD_3_423": "A",
  "BRAKE_PAD_3_445": "C",
  "BRAKE_PAD_3_456": "B",
  "BRAKE_PAD_3_457": "B",
  "BRAKE_PAD_3_459": "A",
  "BRAKE_PAD_3_465": "C",
  "BRAKE_PAD_3_486": "B",
  "BRAKE_PAD_3_507": "B",
  "BRAKE_PAD_3_512": "C",
  "BRAKE_PAD_3_532": "A",
  "BRAKE_PAD_3_542": "C",
  "BRAKE_PAD_3_583": "C",
  "BRAKE_PAD_3_584": "B",
  "BRAKE_PAD_3_590": "A",
  "BRAKE_PAD_3_600": "A",
  "BRAKE_PAD_3_636": "A",
  "BRAKE_PAD_3_638": "B",
  "BRAKE_PAD_3_642": "B",
  "BRAKE_PAD_3_645": "B",
  "BRAKE_PAD_3_647": "C",
  "BRAKE_PAD_3_652": "A",
  "BRAKE_PAD_3_653": "A",
  "BRAKE_PAD_3_674": "A",
  "BRAKE_PAD_3_676": "A",
  "BRAKE_PAD_3_678": "A",
  "BRAKE_PAD_3_692": "A",
  "BRAKE_PAD_3_693": "C",
  "BRAKE_PAD_3_701": "B",
  "BRAKE_PAD_3_703": "B",
  "BRAKE_PAD_3_716": "B",
  "BRAKE_PAD_3_733": "C",
  "BRAKE_PAD_3_742": "B",
  "BRAKE_PAD_3_751": "B",
  "BRAKE_PAD_3_765": "A",
  "BRAKE_PAD_3_774": "A",
  "BRAKE_PAD_3_793": "B",
  "BRAKE_PAD_3_795": "A",
  "BRAKE_PAD_3_805": "A",
  "BRAKE_PAD_3_824": "B",
  "FAN_MOTOR_1_015": "B",
  "FAN_MOTOR_1_021": "A",
  "FAN_MOTOR_1_028": "A",
  "FAN_MOTOR_1_037": "B",
  "FAN_MOTOR_1_064": "C",
  "FAN_MOTOR_1_081": "A",
  "FAN_MOTOR_1_099": "B",
  "FAN_MOTOR_1_142": "A",
  "FAN_MOTOR_1_144": "C",
  "FAN_MOTOR_1_153": "A",
  "FAN_MOTOR_1_170": "A",
  "FAN_MOTOR_1_176": "A",
  "FAN_MOTOR_1_188": "A",
  "FAN_MOTOR_1_202": "A",
  "FAN_MOTOR_1_224": "A",
  "FAN_MOTOR_1_238": "B",
  "FAN_MOTOR_1_255": "A",
  "FAN_MOTOR_1_259": "A",
  "FAN_MOTOR_1_272": "A",
  "FAN_MOTOR_1_291": "A",
  "FAN_MOTOR_1_298": "A",
  "FAN_MOTOR_1_314": "C",
  "FAN_MOTOR_1_339": "A",
  "FAN_MOTOR_1_356": "A",
  "FAN_MOTOR_1_371": "B",
  "FAN_MOTOR_1_390": "C",
  "FAN_MOTOR_1_395": "B",
  "FAN_MOTOR_1_408": "A",
  "FAN_MOTOR_1_441": "B",
  "FAN_MOTOR_1_444": "C",
  "FAN_MOTOR_1_446": "B",
  "FAN_MOTOR_1_462": "A",
  "FAN_MOTOR_1_467": "A",
  "FAN_MOTOR_1_468": "A",
  "FAN_MOTOR_1_505": "A",
  "FAN_MOTOR_1_521": "A",
  "FAN_MOTOR_1_524": "B",
  "FAN_MOTOR_1_537": "A",
  "FAN_MOTOR_2_004": "C",
  "FAN_MOTOR_2_024": "C",
  "FAN_MOTOR_2_036": "A",
  "FAN_MOTOR_2_040": "B",
  "FAN_MOTOR_2_057": "C",
  "FAN_MOTOR_2_062": "B",
  "FAN_MOTOR_2_069": "B",
  "FAN_MOTOR_2_074": "B",
  "FAN_MOTOR_2_130": "C",
  "FAN_MOTOR_2_151": "C",
  "FAN_MOTOR_2_156": "B",
]#;

sku_to_region = #[
  "BRAKE_PAD_3_309": "TX",
  "BRAKE_PAD_3_328": "CA",
  "BRAKE_PAD_3_331": "TX",
  "BRAKE_PAD_3_356": "WI",
  "BRAKE_PAD_3_364": "CA",
  "BRAKE_PAD_3_367": "CA",
  "BRAKE_PAD_3_389": "TX",
  "BRAKE_PAD_3_397": "WI",
  "BRAKE_PAD_3_409": "TX",
  "BRAKE_PAD_3_423": "CA",
  "BRAKE_PAD_3_445": "CA",
  "BRAKE_PAD_3_456": "CA",
  "BRAKE_PAD_3_457": "CA",
  "BRAKE_PAD_3_459": "CA",
  "BRAKE_PAD_3_465": "CA",
  "BRAKE_PAD_3_486": "TX",
  "BRAKE_PAD_3_507": "WI",
  "BRAKE_PAD_3_512": "WI",
  "BRAKE_PAD_3_532": "WI",
  "BRAKE_PAD_3_542": "CA",
  "BRAKE_PAD_3_583": "TX",
  "BRAKE_PAD_3_584": "WI",
  "BRAKE_PAD_3_590": "WI",
  "BRAKE_PAD_3_600": "WI",
  "BRAKE_PAD_3_636": "CA",
  "BRAKE_PAD_3_638": "TX",
  "BRAKE_PAD_3_642": "CA",
  "BRAKE_PAD_3_645": "TX",
  "BRAKE_PAD_3_647": "TX",
  "BRAKE_PAD_3_652": "CA",
  "BRAKE_PAD_3_653": "WI",
  "BRAKE_PAD_3_674": "WI",
  "BRAKE_PAD_3_676": "TX",
  "BRAKE_PAD_3_678": "CA",
  "BRAKE_PAD_3_692": "WI",
  "BRAKE_PAD_3_693": "TX",
  "BRAKE_PAD_3_701": "WI",
  "BRAKE_PAD_3_703": "WI",
  "BRAKE_PAD_3_716": "CA",
  "BRAKE_PAD_3_733": "WI",
  "BRAKE_PAD_3_742": "CA",
  "BRAKE_PAD_3_751": "WI",
  "BRAKE_PAD_3_765": "CA",
  "BRAKE_PAD_3_774": "TX",
  "BRAKE_PAD_3_793": "TX",
  "BRAKE_PAD_3_795": "TX",
  "BRAKE_PAD_3_805": "WI",
  "BRAKE_PAD_3_824": "WI",
  "FAN_MOTOR_1_015": "WI",
  "FAN_MOTOR_1_021": "TX",
  "FAN_MOTOR_1_028": "TX",
  "FAN_MOTOR_1_037": "WI",
  "FAN_MOTOR_1_064": "CA",
  "FAN_MOTOR_1_081": "CA",
  "FAN_MOTOR_1_099": "CA",
  "FAN_MOTOR_1_142": "WI",
  "FAN_MOTOR_1_144": "TX",
  "FAN_MOTOR_1_153": "TX",
  "FAN_MOTOR_1_170": "WI",
  "FAN_MOTOR_1_176": "CA",
  "FAN_MOTOR_1_188": "TX",
  "FAN_MOTOR_1_202": "CA",
  "FAN_MOTOR_1_224": "TX",
  "FAN_MOTOR_1_238": "CA",
  "FAN_MOTOR_1_255": "WI",
  "FAN_MOTOR_1_259": "CA",
  "FAN_MOTOR_1_272": "WI",
  "FAN_MOTOR_1_291": "TX",
  "FAN_MOTOR_1_298": "WI",
  "FAN_MOTOR_1_314": "WI",
  "FAN_MOTOR_1_339": "CA",
  "FAN_MOTOR_1_356": "WI",
  "FAN_MOTOR_1_371": "CA",
  "FAN_MOTOR_1_390": "TX",
  "FAN_MOTOR_1_395": "TX",
  "FAN_MOTOR_1_408": "TX",
  "FAN_MOTOR_1_441": "CA",
  "FAN_MOTOR_1_444": "CA",
  "FAN_MOTOR_1_446": "TX",
  "FAN_MOTOR_1_462": "TX",
  "FAN_MOTOR_1_467": "TX",
  "FAN_MOTOR_1_468": "CA",
  "FAN_MOTOR_1_505": "TX",
  "FAN_MOTOR_1_521": "CA",
  "FAN_MOTOR_1_524": "CA",
  "FAN_MOTOR_1_537": "CA",
  "FAN_MOTOR_2_004": "CA",
  "FAN_MOTOR_2_024": "WI",
  "FAN_MOTOR_2_036": "CA",
  "FAN_MOTOR_2_040": "TX",
  "FAN_MOTOR_2_057": "CA",
  "FAN_MOTOR_2_062": "CA",
  "FAN_MOTOR_2_069": "TX",
  "FAN_MOTOR_2_074": "WI",
  "FAN_MOTOR_2_130": "CA",
  "FAN_MOTOR_2_151": "WI",
  "FAN_MOTOR_2_156": "WI",
]#;

regional_inventory_budget = #[
  "TX": 750000.00,
  "CA": 500000.00,
  "WI": 400000.00,
]#;

